TCS_Benchmarks/redos_fix/corpus2_output_distinct_1512_1511_26_0.txt
.+
(.+)( on line ([0-9]+))(.*)
.*